0001 5
0002 5
0003 14
0004 3
0005 16
0006 3
0007 3
0008 21
0009 18
0010 2
0011 2
0012 2
0013 10
0014 7
0015 11
0016 12
0017 13
0018 1
0019 12
0020 3
0021 13
0022 1
0023 12
0024 15
0025 9
0026 0
0027 16
0028 9
0029 17
0030 19
0031 18
0032 9
0033 8
0034 9
0035 6
0036 9
0037 9
0038 10
0039 9
0040 0
0041 0
0042 16
0043 0
0044 18
0045 17
0046 19
0047 12
0048 19
0049 8
0050 4
0051 21
0052 4
0053 4
0054 18
0055 12
0056 18
0057 18
0058 0
0059 0
0060 22
0061 14
0062 3
0063 4
0064 2
0065 5
0066 20
0067 6
0068 7
0069 17
0070 3
0071 11
0072 0
0073 14
0074 9
0075 5
0076 13
0077 16
0078 21
0079 10
0080 22
0081 10
0082 1
0083 16
0084 0
0085 8
0086 20
0087 17
0088 12
0089 3
0090 20
0091 8
0092 7
0093 1
0094 4
0095 13
0096 14
0097 22
0098 2
0099 8
0100 22
0101 11
0102 6
0103 1
0104 7
0105 4
0106 18
0107 21
0108 7
0109 6
0110 7
0111 7
0112 22
0113 22
0114 22
0115 22
0116 22
0117 11
0118 22
0119 3
0120 4
0121 22
0122 14
0123 2
0124 1
0125 19
0126 11
0127 21
0128 16
0129 15
0130 13
0131 14
0132 17
0133 14
0134 19
0135 6
0136 17
0137 18
0138 15
0139 17
0140 5
0141 15
0142 13
0143 1
0144 13
0145 10
0146 21
0147 1
0148 12
0149 12
0150 17
0151 4
0152 1
0153 1
0154 2
0155 11
0156 12
0157 13
0158 15
0159 5
0160 16
0161 3
0162 15
0163 14
0164 15
0165 20
0166 5
0167 17
0168 20
0169 15
0170 16
0171 8
0172 14
0173 12
0174 12
0175 0
0176 4
0177 19
0178 19
0179 16
0180 16
0181 7
